
Gurobi 9.0.2 (win64) logging started Sat Oct 10 16:50:03 2020

Changed value of parameter logfile to result\v6.2-20201010T1221\scenario_2030_eff100_cab3000.log
   Prev:   Default: 
Gurobi Optimizer version 9.0.2 build v9.0.2rc0 (win64)
Optimize a model with 1384150 rows, 884815 columns and 3912197 nonzeros
Model fingerprint: 0x73c9e456
Coefficient statistics:
  Matrix range     [1e-07, 3e+05]
  Objective range  [1e+00, 1e+00]
  Bounds range     [0e+00, 0e+00]
  RHS range        [2e-05, 3e+08]
Warning: Model contains large matrix coefficient range
         Consider reformulating model or setting NumericFocus parameter
         to avoid numerical issues.

Concurrent LP optimizer: primal simplex, dual simplex, and barrier
Showing barrier log only...

Presolve removed 1129315 rows and 656241 columns
Presolve time: 3.45s
Presolved: 254835 rows, 342440 columns, 891938 nonzeros

Ordering time: 0.13s

Barrier statistics:
 Dense cols : 9
 AA' NZ     : 8.194e+05
 Factor NZ  : 4.461e+06 (roughly 300 MBytes of memory)
 Factor Ops : 1.125e+08 (less than 1 second per iteration)
 Threads    : 30

                  Objective                Residual
Iter       Primal          Dual         Primal    Dual     Compl     Time
   0  -1.99129356e+16 -1.58516296e+15  5.97e+06 1.56e+04  2.39e+12     4s
   1  -3.04707830e+15 -1.58902271e+15  9.05e+05 4.72e+06  7.82e+11     4s
   2  -1.24325965e+15 -1.31595106e+15  3.67e+05 8.62e+05  2.21e+11     5s
   3  -5.37633691e+14 -1.06589340e+15  1.55e+05 2.46e+05  8.60e+10     5s
   4  -1.23970789e+14 -6.84349095e+14  3.31e+04 6.89e+04  1.97e+10     5s
   5  -3.85168178e+13 -4.31561595e+14  1.00e+04 3.05e+04  7.76e+09     6s
   6  -1.79748026e+13 -2.77943888e+14  4.94e+03 1.26e+04  3.48e+09     6s
   7  -7.76827598e+12 -1.58491465e+14  2.28e+03 2.66e+03  1.14e+09     6s
   8  -1.87056269e+12 -8.35229056e+13  6.86e+02 4.39e+02  2.98e+08     6s
   9   5.71185241e+11 -1.72771231e+13  5.58e+00 6.05e+00  2.70e+07     7s
  10   2.70007368e+11 -1.55176758e+12  1.24e+00 2.68e-01  2.70e+06     7s
  11   1.23092106e+11 -7.55186891e+11  4.78e-01 5.59e-09  1.29e+06     7s
  12   6.44372546e+10 -3.75723257e+11  2.16e-01 5.59e-09  6.43e+05     8s
  13   3.03572119e+10 -1.62978828e+11  8.37e-02 7.45e-09  2.81e+05     8s
  14   2.29677451e+10 -8.56042465e+10  5.94e-02 7.45e-09  1.58e+05     8s
  15   1.64679876e+10 -5.48382979e+10  3.61e-02 5.59e-09  1.04e+05     8s
  16   1.68247449e+10 -3.82734935e+10  3.30e-02 7.45e-09  8.04e+04     9s
  17   1.13850800e+10 -1.02450702e+10  1.66e-02 7.45e-09  3.17e+04     9s
  18   8.12626996e+09 -1.17217844e+09  4.51e-03 7.45e-09  1.35e+04     9s
  19   7.58248257e+09  2.36372730e+09  2.88e-03 5.59e-09  7.60e+03    10s
  20   7.32345198e+09  4.81793250e+09  2.20e-03 5.59e-09  3.66e+03    10s
  21   7.09709598e+09  4.99803276e+09  1.63e-03 5.59e-09  3.06e+03    10s
  22   6.94061295e+09  5.18194818e+09  1.23e-03 5.59e-09  2.56e+03    10s
  23   6.86339716e+09  5.50663434e+09  1.04e-03 3.73e-09  1.97e+03    11s
  24   6.73210852e+09  5.67454364e+09  7.17e-04 3.73e-09  1.54e+03    11s
  25   6.63661319e+09  5.86420702e+09  4.86e-04 3.73e-09  1.12e+03    11s
  26   6.59435688e+09  5.92484714e+09  3.82e-04 2.79e-09  9.71e+02    12s
  27   6.56664249e+09  6.09804264e+09  3.21e-04 2.79e-09  6.80e+02    12s
  28   6.52615429e+09  6.14679923e+09  2.35e-04 2.79e-09  5.50e+02    12s
  29   6.50007535e+09  6.20253990e+09  1.76e-04 1.86e-09  4.31e+02    13s
  30   6.45856918e+09  6.26533114e+09  7.89e-05 1.86e-09  2.80e+02    13s
  31   6.43776176e+09  6.32538999e+09  3.49e-05 1.86e-09  1.63e+02    14s
  32   6.42812049e+09  6.36332674e+09  1.60e-05 1.86e-09  9.37e+01    14s
  33   6.42625625e+09  6.37408655e+09  1.29e-05 1.86e-09  7.54e+01    14s
  34   6.42274886e+09  6.38909843e+09  6.65e-06 1.86e-09  4.86e+01    15s
  35   6.42107610e+09  6.40058854e+09  3.88e-06 1.86e-09  2.96e+01    15s
  36   6.42012249e+09  6.40194076e+09  2.51e-06 1.86e-09  2.63e+01    15s
  37   6.41914562e+09  6.41053581e+09  9.10e-07 1.86e-09  1.24e+01    15s
  38   6.41882504e+09  6.41246275e+09  4.91e-07 1.86e-09  9.19e+00    16s
  39   6.41871530e+09  6.41384675e+09  3.62e-07 1.86e-09  7.03e+00    16s
  40   6.41851468e+09  6.41565180e+09  1.30e-07 1.86e-09  4.13e+00    16s
  41   6.41843187e+09  6.41754438e+09  6.04e-08 2.79e-09  1.28e+00    16s
  42   6.41838156e+09  6.41830223e+09  3.24e-08 2.79e-09  1.15e-01    17s
  43   6.41835693e+09  6.41833193e+09  2.01e-07 2.79e-09  3.61e-02    17s
  44   6.41835256e+09  6.41835083e+09  2.19e-08 2.96e-09  2.49e-03    17s
  45   6.41835178e+09  6.41835176e+09  6.10e-09 2.79e-09  3.28e-05    18s
  46   6.41835178e+09  6.41835176e+09  6.10e-09 2.79e-09  3.28e-05    18s

Barrier solved model in 46 iterations and 17.94 seconds
Optimal objective 6.41835178e+09

Crossover log...

   76449 DPushes remaining with DInf 0.0000000e+00                18s
    2512 DPushes remaining with DInf 0.0000000e+00                20s
       0 DPushes remaining with DInf 0.0000000e+00                22s
Warning: Markowitz tolerance tightened to 0.5

  107621 PPushes remaining with PInf 4.7371754e-03                22s
   59366 PPushes remaining with PInf 2.3268688e-02                30s
   43174 PPushes remaining with PInf 3.1002069e-02                39s
   32948 PPushes remaining with PInf 3.0607908e-02                41s
       1 PPushes remaining with PInf 0.0000000e+00               128s
       0 PPushes remaining with PInf 0.0000000e+00               128s

  Push phase complete: Pinf 0.0000000e+00, Dinf 1.7093160e+05    128s

Iteration    Objective       Primal Inf.    Dual Inf.      Time
  136292    6.4183518e+09   0.000000e+00   1.709316e+05    128s
  136566    6.4183518e+09   0.000000e+00   0.000000e+00    132s

Solved with barrier
Solved in 136566 iterations and 132.02 seconds
Optimal objective  6.418351777e+09
Warning: unscaled primal violation = 0.000870558 and residual = 0.000870558
